
Log started (V11.0.0) Mon Apr 14 02:42:45 2008

Tried aggregator 1 time.
Reduced MIP has 530 rows, 15001 columns, and 30030 nonzeros.
Presolve time =    0.09 sec.
Clique table members: 500.
MIP emphasis: balance optimality and feasibility.
MIP search method: dynamic search.
Parallel mode: none, using 1 thread.
Root relaxation solution time =    0.45 sec.

        Nodes                                         Cuts/
   Node  Left     Objective  IInf  Best Integer     Best Node    ItCnt     Gap

*     0+    0                        24497.0000       60.7970      881   99.75%
*     0+    0                           71.0000       60.7970      881   14.37%
      0     0       61.0000    55       71.0000      Fract: 8      926   14.08%
*     0+    0                           69.0000       61.0000      926   11.59%
*     0+    0                           65.0000       61.0000      926    6.15%
*     0+    0                           64.0000       61.0000      926    4.69%

Repeating presolve.
Tried aggregator 1 time.
MIP Presolve eliminated 0 rows and 5724 columns.
Reduced MIP has 530 rows, 9277 columns, and 18582 nonzeros.
Tried aggregator 1 time.
Represolve time =    0.39 sec.
Clique table members: 811.
MIP emphasis: balance optimality and feasibility.
MIP search method: dynamic search.
Parallel mode: none, using 1 thread.
Root relaxation solution time =    0.27 sec.

        Nodes                                         Cuts/
   Node  Left     Objective  IInf  Best Integer     Best Node    ItCnt     Gap

      0     0       61.0000    55       64.0000       61.0000      916    4.69%
      0     2       61.0000    55       64.0000       61.0000      916    4.69%
    100    89       62.0598    55       64.0000       61.0000     4526    4.69%
    200   164       62.0000    42       64.0000       61.0000    10031    4.69%
    300   241       63.0000    32       64.0000       61.0000    16126    4.69%
    400   319       61.0000    60       64.0000       61.0000    22359    4.69%
*   480+  284                           63.0000       61.0000    25852    3.17%
    500   304       62.0000    36       63.0000       61.0000    26667    3.17%
*   591+  240                           62.0000       61.0000    37482    1.61%
    600   240    infeasible             62.0000       61.0000    38217    1.61%

Cover cuts applied:  224
Gomory fractional cuts applied:  4

Solution pool: 7 solutions saved.

MIP - Integer optimal solution:  Objective = 6.2000000000e+001
Solution time =   52.59 sec.  Iterations = 67564  Nodes = 666 (192)


Incumbent solution
Variable Name           Solution Value
Cmax                         62.000000
X_1_10                        1.000000
X_2_28                        1.000000
X_3_24                        1.000000
X_4_28                        1.000000
X_5_25                        1.000000
X_6_17                        1.000000
X_7_26                        1.000000
X_8_22                        1.000000
X_9_5                         1.000000
X_10_5                        1.000000
X_11_23                       1.000000
X_12_21                       1.000000
X_13_30                       1.000000
X_14_20                       1.000000
X_15_7                        1.000000
X_16_27                       1.000000
X_17_11                       1.000000
X_18_2                        1.000000
X_19_16                       1.000000
X_20_8                        1.000000
X_21_9                        1.000000
X_22_17                       1.000000
X_23_30                       1.000000
X_24_3                        1.000000
X_25_13                       1.000000
X_26_7                        1.000000
X_27_29                       1.000000
X_28_20                       1.000000
X_29_25                       1.000000
X_30_14                       1.000000
X_31_10                       1.000000
X_32_4                        1.000000
X_33_18                       1.000000
X_34_23                       1.000000
X_35_23                       1.000000
X_36_4                        1.000000
X_37_25                       1.000000
X_38_8                        1.000000
X_39_2                        1.000000
X_40_4                        1.000000
X_41_13                       1.000000
X_42_28                       1.000000
X_43_30                       1.000000
X_44_12                       1.000000
X_45_17                       1.000000
X_46_1                        1.000000
X_47_20                       1.000000
X_48_17                       1.000000
X_49_30                       1.000000
X_50_11                       1.000000
X_51_5                        1.000000
X_52_16                       1.000000
X_53_9                        1.000000
X_54_25                       1.000000
X_55_26                       1.000000
X_56_19                       1.000000
X_57_12                       1.000000
X_58_30                       1.000000
X_59_2                        1.000000
X_60_8                        1.000000
X_61_30                       1.000000
X_62_23                       1.000000
X_63_18                       1.000000
X_64_27                       1.000000
X_65_21                       1.000000
X_66_13                       1.000000
X_67_27                       1.000000
X_68_3                        1.000000
X_69_12                       1.000000
X_70_24                       1.000000
X_71_18                       1.000000
X_72_10                       1.000000
X_73_20                       1.000000
X_74_15                       1.000000
X_75_8                        1.000000
X_76_6                        1.000000
X_77_16                       1.000000
X_78_2                        1.000000
X_79_9                        1.000000
X_80_12                       1.000000
X_81_17                       1.000000
X_82_22                       1.000000
X_83_17                       1.000000
X_84_29                       1.000000
X_85_19                       1.000000
X_86_30                       1.000000
X_87_12                       1.000000
X_88_12                       1.000000
X_89_17                       1.000000
X_90_3                        1.000000
X_91_1                        1.000000
X_92_1                        1.000000
X_93_5                        1.000000
X_94_7                        1.000000
X_95_23                       1.000000
X_96_10                       1.000000
X_97_11                       1.000000
X_98_8                        1.000000
X_99_12                       1.000000
X_100_29                      1.000000
X_101_15                      1.000000
X_102_30                      1.000000
X_103_30                      1.000000
X_104_15                      1.000000
X_105_18                      1.000000
X_106_4                       1.000000
X_107_18                      1.000000
X_108_30                      1.000000
X_109_22                      1.000000
X_110_11                      1.000000
X_111_9                       1.000000
X_112_13                      1.000000
X_113_10                      1.000000
X_114_3                       1.000000
X_115_3                       1.000000
X_116_23                      1.000000
X_117_26                      1.000000
X_118_30                      1.000000
X_119_24                      1.000000
X_120_29                      1.000000
X_121_8                       1.000000
X_122_15                      1.000000
X_123_3                       1.000000
X_124_19                      1.000000
X_125_9                       1.000000
X_126_22                      1.000000
X_127_28                      1.000000
X_128_7                       1.000000
X_129_16                      1.000000
X_130_16                      1.000000
X_131_12                      1.000000
X_132_22                      1.000000
X_133_14                      1.000000
X_134_24                      1.000000
X_135_30                      1.000000
X_136_3                       1.000000
X_137_28                      1.000000
X_138_15                      1.000000
X_139_6                       1.000000
X_140_23                      1.000000
X_141_30                      1.000000
X_142_6                       1.000000
X_143_4                       1.000000
X_144_15                      1.000000
X_145_22                      1.000000
X_146_18                      1.000000
X_147_30                      1.000000
X_148_19                      1.000000
X_149_25                      1.000000
X_150_13                      1.000000
X_151_25                      1.000000
X_152_23                      1.000000
X_153_21                      1.000000
X_154_25                      1.000000
X_155_27                      1.000000
X_156_4                       1.000000
X_157_3                       1.000000
X_158_28                      1.000000
X_159_26                      1.000000
X_160_18                      1.000000
X_161_13                      1.000000
X_162_10                      1.000000
X_163_22                      1.000000
X_164_4                       1.000000
X_165_11                      1.000000
X_166_4                       1.000000
X_167_3                       1.000000
X_168_19                      1.000000
X_169_27                      1.000000
X_170_11                      1.000000
X_171_11                      1.000000
X_172_5                       1.000000
X_173_19                      1.000000
X_174_26                      1.000000
X_175_16                      1.000000
X_176_15                      1.000000
X_177_25                      1.000000
X_178_29                      1.000000
X_179_21                      1.000000
X_180_29                      1.000000
X_181_11                      1.000000
X_182_2                       1.000000
X_183_9                       1.000000
X_184_6                       1.000000
X_185_14                      1.000000
X_186_5                       1.000000
X_187_14                      1.000000
X_188_3                       1.000000
X_189_17                      1.000000
X_190_28                      1.000000
X_191_1                       1.000000
X_192_17                      1.000000
X_193_11                      1.000000
X_194_21                      1.000000
X_195_14                      1.000000
X_196_6                       1.000000
X_197_24                      1.000000
X_198_10                      1.000000
X_199_4                       1.000000
X_200_27                      1.000000
X_201_5                       1.000000
X_202_4                       1.000000
X_203_11                      1.000000
X_204_17                      1.000000
X_205_10                      1.000000
X_206_7                       1.000000
X_207_28                      1.000000
X_208_9                       1.000000
X_209_21                      1.000000
X_210_8                       1.000000
X_211_8                       1.000000
X_212_27                      1.000000
X_213_16                      1.000000
X_214_4                       1.000000
X_215_16                      1.000000
X_216_18                      1.000000
X_217_21                      1.000000
X_218_12                      1.000000
X_219_28                      1.000000
X_220_9                       1.000000
X_221_4                       1.000000
X_222_1                       1.000000
X_223_30                      1.000000
X_224_18                      1.000000
X_225_27                      1.000000
X_226_9                       1.000000
X_227_14                      1.000000
X_228_2                       1.000000
X_229_14                      1.000000
X_230_23                      1.000000
X_231_29                      1.000000
X_232_26                      1.000000
X_233_4                       1.000000
X_234_13                      1.000000
X_235_27                      1.000000
X_236_12                      1.000000
X_237_4                       1.000000
X_238_17                      1.000000
X_239_17                      1.000000
X_240_3                       1.000000
X_241_1                       1.000000
X_242_8                       1.000000
X_243_7                       1.000000
X_244_1                       1.000000
X_245_2                       1.000000
X_246_3                       1.000000
X_247_4                       1.000000
X_248_18                      1.000000
X_249_22                      1.000000
X_250_7                       1.000000
X_251_15                      1.000000
X_252_26                      1.000000
X_253_30                      1.000000
X_254_20                      1.000000
X_255_28                      1.000000
X_256_9                       1.000000
X_257_17                      1.000000
X_258_19                      1.000000
X_259_28                      1.000000
X_260_14                      1.000000
X_261_12                      1.000000
X_262_24                      1.000000
X_263_29                      1.000000
X_264_19                      1.000000
X_265_10                      1.000000
X_266_21                      1.000000
X_267_26                      1.000000
X_268_4                       1.000000
X_269_22                      1.000000
X_270_8                       1.000000
X_271_7                       1.000000
X_272_21                      1.000000
X_273_16                      1.000000
X_274_9                       1.000000
X_275_3                       1.000000
X_276_16                      1.000000
X_277_15                      1.000000
X_278_4                       1.000000
X_279_3                       1.000000
X_280_21                      1.000000
X_281_9                       1.000000
X_282_28                      1.000000
X_283_28                      1.000000
X_284_24                      1.000000
X_285_20                      1.000000
X_286_11                      1.000000
X_287_29                      1.000000
X_288_5                       1.000000
X_289_12                      1.000000
X_290_30                      1.000000
X_291_9                       1.000000
X_292_29                      1.000000
X_293_5                       1.000000
X_294_5                       1.000000
X_295_27                      1.000000
X_296_18                      1.000000
X_297_14                      1.000000
X_298_18                      1.000000
X_299_13                      1.000000
X_300_18                      1.000000
X_301_6                       1.000000
X_302_23                      1.000000
X_303_27                      1.000000
X_304_23                      1.000000
X_305_8                       1.000000
X_306_5                       1.000000
X_307_17                      1.000000
X_308_23                      1.000000
X_309_7                       1.000000
X_310_6                       1.000000
X_311_6                       1.000000
X_312_27                      1.000000
X_313_7                       1.000000
X_314_15                      1.000000
X_315_6                       1.000000
X_316_6                       1.000000
X_317_29                      1.000000
X_318_28                      1.000000
X_319_9                       1.000000
X_320_12                      1.000000
X_321_5                       1.000000
X_322_17                      1.000000
X_323_10                      1.000000
X_324_24                      1.000000
X_325_23                      1.000000
X_326_6                       1.000000
X_327_28                      1.000000
X_328_25                      1.000000
X_329_10                      1.000000
X_330_22                      1.000000
X_331_5                       1.000000
X_332_11                      1.000000
X_333_23                      1.000000
X_334_6                       1.000000
X_335_1                       1.000000
X_336_12                      1.000000
X_337_28                      1.000000
X_338_15                      1.000000
X_339_18                      1.000000
X_340_21                      1.000000
X_341_20                      1.000000
X_342_15                      1.000000
X_343_15                      1.000000
X_344_29                      1.000000
X_345_29                      1.000000
X_346_6                       1.000000
X_347_11                      1.000000
X_348_21                      1.000000
X_349_29                      1.000000
X_350_18                      1.000000
X_351_16                      1.000000
X_352_21                      1.000000
X_353_23                      1.000000
X_354_20                      1.000000
X_355_18                      1.000000
X_356_16                      1.000000
X_357_24                      1.000000
X_358_26                      1.000000
X_359_24                      1.000000
X_360_8                       1.000000
X_361_12                      1.000000
X_362_15                      1.000000
X_363_20                      1.000000
X_364_25                      1.000000
X_365_30                      1.000000
X_366_16                      1.000000
X_367_24                      1.000000
X_368_6                       1.000000
X_369_18                      1.000000
X_370_13                      1.000000
X_371_18                      1.000000
X_372_19                      1.000000
X_373_7                       1.000000
X_374_17                      1.000000
X_375_2                       1.000000
X_376_24                      1.000000
X_377_29                      1.000000
X_378_14                      1.000000
X_379_14                      1.000000
X_380_29                      1.000000
X_381_24                      1.000000
X_382_5                       1.000000
X_383_27                      1.000000
X_384_23                      1.000000
X_385_9                       1.000000
X_386_30                      1.000000
X_387_25                      1.000000
X_388_7                       1.000000
X_389_22                      1.000000
X_390_26                      1.000000
X_391_10                      1.000000
X_392_13                      1.000000
X_393_8                       1.000000
X_394_2                       1.000000
X_395_7                       1.000000
X_396_19                      1.000000
X_397_1                       1.000000
X_398_26                      1.000000
X_399_27                      1.000000
X_400_19                      1.000000
X_401_6                       1.000000
X_402_6                       1.000000
X_403_16                      1.000000
X_404_13                      1.000000
X_405_24                      1.000000
X_406_24                      1.000000
X_407_28                      1.000000
X_408_20                      1.000000
X_409_2                       1.000000
X_410_15                      1.000000
X_411_2                       1.000000
X_412_4                       1.000000
X_413_9                       1.000000
X_414_25                      1.000000
X_415_23                      1.000000
X_416_7                       1.000000
X_417_22                      1.000000
X_418_19                      1.000000
X_419_14                      1.000000
X_420_6                       1.000000
X_421_27                      1.000000
X_422_18                      1.000000
X_423_7                       1.000000
X_424_23                      1.000000
X_425_13                      1.000000
X_426_24                      1.000000
X_427_22                      1.000000
X_428_19                      1.000000
X_429_26                      1.000000
X_430_8                       1.000000
X_431_5                       1.000000
X_432_11                      1.000000
X_433_23                      1.000000
X_434_7                       1.000000
X_435_24                      1.000000
X_436_27                      1.000000
X_437_20                      1.000000
X_438_30                      1.000000
X_439_25                      1.000000
X_440_17                      1.000000
X_441_12                      1.000000
X_442_12                      1.000000
X_443_15                      1.000000
X_444_18                      1.000000
X_445_5                       1.000000
X_446_18                      1.000000
X_447_1                       1.000000
X_448_26                      1.000000
X_449_24                      1.000000
X_450_15                      1.000000
X_451_28                      1.000000
X_452_16                      1.000000
X_453_3                       1.000000
X_454_29                      1.000000
X_455_24                      1.000000
X_456_23                      1.000000
X_457_9                       1.000000
X_458_22                      1.000000
X_459_6                       1.000000
X_460_30                      1.000000
X_461_1                       1.000000
X_462_6                       1.000000
X_463_27                      1.000000
X_464_4                       1.000000
X_465_18                      1.000000
X_466_10                      1.000000
X_467_11                      1.000000
X_468_28                      1.000000
X_469_29                      1.000000
X_470_29                      1.000000
X_471_19                      1.000000
X_472_1                       1.000000
X_473_10                      1.000000
X_474_18                      1.000000
X_475_7                       1.000000
X_476_1                       1.000000
X_477_14                      1.000000
X_478_17                      1.000000
X_479_5                       1.000000
X_480_28                      1.000000
X_481_19                      1.000000
X_482_21                      1.000000
X_483_5                       1.000000
X_484_9                       1.000000
X_485_18                      1.000000
X_486_8                       1.000000
X_487_8                       1.000000
X_488_14                      1.000000
X_489_27                      1.000000
X_490_8                       1.000000
X_491_28                      1.000000
X_492_4                       1.000000
X_493_21                      1.000000
X_494_12                      1.000000
X_495_29                      1.000000
X_496_28                      1.000000
X_497_28                      1.000000
X_498_23                      1.000000
X_499_25                      1.000000
X_500_19                      1.000000
All other variables in the range 1-15001 are 0.
